c Random generated cnf formula, satisfiable: false
p cnf 10 50
7 4 -10 0
-6 10 -3 0
10 7 9 0
-6 -7 10 0
1 8 6 0
10 5 -2 0
5 -3 4 0
4 8 -2 0
4 -5 3 0
1 -3 -10 0
-5 -2 -1 0
2 -7 8 0
-2 6 7 0
1 9 2 0
-2 10 4 0
-2 5 6 0
3 -2 -6 0
-1 9 6 0
10 -1 -5 0
2 1 9 0
7 8 -2 0
7 -9 -5 0
10 -6 -9 0
-10 3 -8 0
-9 -5 2 0
4 7 -8 0
1 -8 5 0
10 8 -5 0
-10 8 -2 0
-5 -4 -9 0
-3 -7 5 0
6 3 -8 0
3 -10 6 0
7 8 -2 0
-9 7 -2 0
-4 7 -9 0
7 -6 8 0
9 -7 8 0
2 -3 -10 0
-4 10 1 0
-8 -5 10 0
-10 -2 5 0
-4 -6 -2 0
2 9 -1 0
-9 3 5 0
8 6 -2 0
-8 -7 3 0
-5 -2 -1 0
4 2 -3 0
-9 -5 7 0
